x04m04e0t1tp5
2987
2987
3090
3090
3090
3202
3202
3202
3202
3202
3218
3412
3412
3412
3412
3412
3412
3412
3412
3412
3412
3412
3412
3412
3412
3412
3412
3412
3412
3412
3412
3412
3412
3412
3412
3412
3412
3412
3412
3412
3412
3412
3412
3412
3412
3412
3412
3412
3412
3412
3412
3412
3412
3412
3412
3412
3412
3412
3412
3412
3420
3420
3420
3420
3420
3420
3420
3420
3420
3420
3420
3420
3420
3420
3420
3420
3423
3423
3423
3423
3423
3423
3423
3423
3423
3423
3423
3423
3423
3423
3423
3423
3423
3423
3423
3423
3423
3423
3423
3423
3423
3423
3423
3423
3423
3423
3423
3423
3423
3445
3445
3445
3445
3445
3445
3445
3445
3445
3445
3445
3445
3445
3445
3445
3445
3445
3445
3445
3445
3445
3445
3445
3445
3445
3445
3445
3445
3445
3445
3445
3445
3445
3445
3445
3445
3445
3445
3445
3445
3445
3445
3445
3445
3445
3445
3445
3445
3445
3445
3445
3468
3468
3468
3468
3468
3468
3468
3468
3468
3468
3468
3468
3468
3468
3468
3468
3468
3468
3468
3468
3468
3468
3468
3468
3468
3468
3468
3468
3468
3468
3468
3468
3468
3468
3468
3468
3468
3468
3468
3468
3468
3468
3468
3468
3468
3468
3468
3468
3468
3468
3468
3468
3468
3468
3468
3468
3468
3468
3468
3468
3468
3495
3495
3495
3495
3495
3495
3495
3495
3495
3495
3495
3516
3516
3516
3516
3516
3516
3516
3516
3516
3516
3516
3516
3516
3516
3516
3516
3516
3516
3516
3516
3516
3516
3516
3516
3516
3516
3516
3516
3516
3516
3516
3516
3516
3516
3516
3516
3516
3516
3516
3516
3516
3516
3516
3516
3516
3516
3516
3516
3516
3516
3516
3516
3516
3516
3516
3516
3516
3516
3516
3516
3516
3516
3516
3516
3516
3516
3516
3516
3516
3516
3516
3516
3516
3516
3516
3516
3516
3516
3516
3516
3516
3516
3516
3516
3516
3516
3516
3516
3516
3516
3516
3516
3516
3516
3516
3516
3516
3516
3516
3516
3516
3516
3516
3516
3516
3516
3516
3516
3516
3516
3516
3522
3522
3522
3522
3522
3522
3522
3522
3522
3522
3522
3522
3522
3522
3522
3522
3522
3522
3522
3522
3522
3522
3522
3522
3522
3522
3522
3522
3522
3522
3522
3522
3522
3522
3522
3522
3522
3522
3522
3522
3522
3522
3522
3522
3522
3522
3522
3522
3522
3522
3522
3522
3522
3522
3522
3522
3522
3522
3522
3522
3522
3522
3522
3522
3522
3522
3522
3522
3522
3522
3522
3522
3522
3522
3522
3522
3522
3522
3522
3522
3522
3522
3522
3522
3522
3522
3522
3522
3522
3522
3522
3522
3522
3522
3522
3522
3522
3522
3522
3522
3522
3522
3522
3522
3522
3522
3522
3522
3522
3522
3522
3522
3522
3522
3522
3522
3522
3522
3522
3522
3522
3522
3522
3522
3522
3522
3522
3522
3522
3522
3522
3522
3522
3543
3543
3543
3543
3543
3543
3543
3543
3543
3543
3543
3543
3543
3543
3543
3543
3543
3543
3543
3543
3543
3543
3543
3543
3543
3543
3543
3543
3543
3543
3543
3543
3543
3543
3543
3543
3543
3543
3543
3543
3543
3543
3543
3543
3543
3543
3543
3543
3543
3543
3543
3543
3543
3543
3543
3543
3543
3543
3543
3543
3543
3543
3543
3543
3543
3543
3543
3543
3543
3543
3543
3543
3543
3543
3543
3543
3543
3543
3543
3543
3543
3543
3543
3543
3543
3543
3543
3543
3543
3543
3543
3543
3543
3543
3543
3543
3543
3543
3543
3543
3543
3543
3543
3543
3543
3543
3543
3543
3543
3543
3543
3543
3543
3543
3543
3543
3543
3543
3543
3543
3543
3543
3543
3543
3543
3543
3543
3543
3543
3543
3543
3543
3543
3543
3543
3543
3543
3543
3543
3543
3543
3543
3543
3543
3543
3543
3543
3543
3543
3543
3543
3543
3543
3543
3543
3543
3543
3543
3543
3543
3543
3543
3543
3543
3543
3543
3543
3543
3543
3543
3543
3543
3543
3543
3543
3543
3543
3543
3543
3543
3543
3543
3543
3543
3543
3543
3543
3543
3543
3543
3543
3543
3543
3543
3543
3543
3543
3543
3543
3543
3543
3543
3543
3543
3543
3543
3543
3543
3543
3543
3543
3543
3543
3543
3543
3543
3543
3543
3543
3543
3543
3543
3543
3543
3543
3543
3543
3543
3543
3543
3543
3543
3543
3543
3543
3543
3543
3543
3543
3543
3543
3543
3543
3543
3543
3543
3543
3543
3543
3543
3543
3543
3543
3543
3543
3543
3543
3543
3543
3543
3543
3543
3543
3543
3543
3543
3543
3543
3543
3543
3543
3543
3543
3543
3543
3543
3543
3648
3648
3648
3648
3648
3648
3648
3648
3648
3648
3648
3648
3648
3648
3648
3648
3648
3648
3648
3648
3648
3648
3648
3648
3648
3648
3648
3648
3648
3648
3648
3648
3648
3648
3648
3648
3648
3648
3648
3648
3648
3648
3648
3648
3648
3648
3648
3648
3648
3648
3648
3648
3648
3648
3648
3648
3648
3648
3648
3648
3648
3648
3648
3648
3648
3648
3648
3648
3648
3648
3648
3648
3648
3648
3648
3648
3648
3648
3648
3648
3648
3648
3648
3648
3648
3648
3648
3648
3648
3648
3648
3648
3648
3648
3648
3648
3648
3648
3648
3648
3648
3648
3648
3648
3648
3648
3648
3648
3648
3648
3648
3648
3648
3648
3648
3648
3648
3648
3648
3648
3648
3648
3648
3648
3648
3648
3648
3648
3648
3648
3648
3648
3648
3648
3648
3648
3648
3648
3648
3648
3648
3648
3648
3648
3648
3648
3648
3648
3648
3648
3648
3648
3648
3648
3648
3648
3648
3648
3648
3648
3648
3648
3648
3648
3648
3648
3648
3648
3648
3648
3648
3648
3648
3648
3648
3648
3648
3648
3648
3648
3648
3648
3648
3648
3648
3648
3648
3648
3648
3648
3648
3648
3648
3648
3648
3648
3648
3648
3648
3648
3648
3648
3648
3648
3648
3648
3648
3648
3648
3648
3648
3648
3648
3648
3648
3648
3648
3648
3648
3648
3648
3648
3648
3648
3648
3648
3648
3648
3648
3648
3648
3648
3648
3648
3648
3648
3648
3648
3648
3648
3648
3648
3648
3648
3648
3648
3648
